decision_x1=[0,4];
decision_x2=[0,4];
decision_x3=[0,4];
decision_x4=[0,4];
random_y1=[0,4];
random_y2=[0,4];
constraint_x2_x1=[
0,1,0.23|
0,2,3.2|
0,3,7|
0,4,6.9|
1,0,7.8|
1,2,6.6|
1,3,9.5|
1,4,7.3|
2,0,4.8|
2,1,7.5|
2,3,7.7|
2,4,5.6|
3,0,6|
3,1,7|
3,2,6.7|
3,4,4.1|
4,0,0.74|
4,1,8.8|
4,2,8.5|
4,3,5.6|
];
constraint_x3_x2=[
0,1,3|
0,2,6.9|
0,3,4.2|
0,4,1.8|
1,0,9.4|
1,2,6.7|
1,3,4|
1,4,8.8|
2,0,0.84|
2,1,9.5|
2,3,4.3|
2,4,9.5|
3,0,4.7|
3,1,4.9|
3,2,1.5|
3,4,0.046|
4,0,6.7|
4,1,5|
4,2,2.9|
4,3,8.4|
];
constraint_x4_x2=[
0,1,4.6|
0,2,7.5|
0,3,1.3|
0,4,5.4|
1,0,8.6|
1,2,6.2|
1,3,2.9|
1,4,2.2|
2,0,8.6|
2,1,4.3|
2,3,1.6|
2,4,7.5|
3,0,9.7|
3,1,6.2|
3,2,5.7|
3,4,0.67|
4,0,9.1|
4,1,4.4|
4,2,7.5|
4,3,2.6|
];
constraint_x1_y1=[
0,0,6.1|
0,1,7.2|
0,2,2.1|
0,3,0.75|
0,4,4.8|
1,0,3.6|
1,1,4.1|
1,2,4.2|
1,3,0.19|
1,4,9.8|
2,0,4.5|
2,1,4.1|
2,2,2.8|
2,3,9.6|
2,4,9.2|
3,0,5.1|
3,1,8.4|
3,2,8.3|
3,3,1.8|
3,4,3.4|
4,0,9.9|
4,1,8.8|
4,2,4.2|
4,3,4.4|
4,4,2.1|
];
constraint_x2_y2=[
0,0,5.9|
0,1,2.8|
0,2,8.8|
0,3,6.6|
0,4,7.5|
1,0,5.7|
1,1,9.8|
1,2,0.05|
1,3,9.8|
1,4,7.1|
2,0,5.2|
2,1,5.5|
2,2,9|
2,3,2.1|
2,4,9.6|
3,0,9.4|
3,1,7|
3,2,7.8|
3,3,9|
3,4,2.3|
4,0,6.3|
4,1,9.1|
4,2,5.4|
4,3,3.6|
4,4,9.1|
];
initial_distribution_y1=[0.088,0.12,0.21,0.25,0.34];
initial_distribution_y2=[0.25,0.17,0.17,0.088,0.34];
transition_y1=[
0.13,0.19,0.48,0.094,0.11|
0.16,0.12,0.15,0.16,0.41|
0.16,0.17,0.2,0.15,0.32|
0.35,0.18,0.15,0.3,0.021|
0.24,0.24,0.39,0.02,0.11|
];
transition_y2=[
0.27,0.24,0.15,0.25,0.092|
0.26,0.19,0.33,0.043,0.17|
0.19,0.22,0.23,0.2,0.16|
0.034,0.33,0.12,0.33,0.19|
0.34,0.18,0.2,0.075,0.2|
];
